#P pbe1pbe/6-31G* opt freq=hpmodes


0 1
 O     0.026811     0.207370     0.000000
 H     0.949907    -0.086606     0.000000
 H    -0.476719    -0.620764     0.000000

